\ Model prob_33
\ LP format - for model browsing. Use MPS format to capture full model detail.
Minimize
  4 Steak + Eggs + 9 Pasta + 4 Chicken
Subject To
 R0: 20 Steak + 7 Eggs + Pasta + 10 Chicken >= 71
 R1: 2 Steak + 3 Eggs + 26 Pasta + Chicken >= 141
 R2: 68 Steak + 143 Eggs + 52 Pasta + 69 Chicken >= 1839
Bounds
Generals
 Steak Eggs Pasta Chicken
End
